
Gurobi 11.0.0 (win64, C++) logging started Tue Jul 29 23:15:46 2025

Set parameter TokenServer to value "141.76.38.119"
### START HEURISTIC APPROACH APPROACH ###
ProblemVariant: 1
### START PREPROCESSING ###
## Start start solution procedure ##
Not enough vehicles for start solution, copying existing vehicle(s)...
Copied 1 vehicle(s). Total vehicles now: 5
Start solution with 5 Vehicles and total costs 396.674 in 3.49136 s.
### END PREPROCESSING ###
Route 0 0-16-18-10-12-0 : weight util 0.670588 | volume util 0.618022 | infeasible with packing heuristic | feasible with CP model
Route 1 0-2-8-0 : weight util 0.823529 | volume util 0.274178 | infeasible with packing heuristic | feasible with CP model
Route 2 0-15-3-9-5-7-0 : weight util 0.858824 | volume util 0.486556 | infeasible with packing heuristic | feasible with CP model
Route 3 0-17-13-14-4-0 : weight util 0.729412 | volume util 0.440800 | infeasible with packing heuristic | feasible with CP model
Route 4 0-20-11-19-6-1-0 : weight util 0.788235 | volume util 0.421178 | infeasible with packing heuristic | feasible with CP model
